numDays = 370;

dates = [2021-10-05,2021-10-06,2021-10-07,2021-10-08,2021-10-09,2021-10-10,2021-10-11,2021-10-12,2021-10-13,2021-10-14,2021-10-15,2021-10-16,2021-10-17,2021-10-18,2021-10-19,2021-10-20,2021-10-21,2021-10-22,2021-10-23,2021-10-24,2021-10-25,2021-10-26,2021-10-27,2021-10-28,2021-10-29,2021-10-30,2021-10-31,2021-11-01,2021-11-02,2021-11-03,2021-11-04,2021-11-05,2021-11-06,2021-11-07,2021-11-08,2021-11-09,2021-11-10,2021-11-11,2021-11-12,2021-11-13,2021-11-14,2021-11-15,2021-11-16,2021-11-17,2021-11-18,2021-11-19,2021-11-20,2021-11-21,2021-11-22,2021-11-23,2021-11-24,2021-11-25,2021-11-26,2021-11-27,2021-11-28,2021-11-29,2021-11-30,2021-12-01,2021-12-02,2021-12-03,2021-12-04,2021-12-05,2021-12-06,2021-12-07,2021-12-08,2021-12-09,2021-12-10,2021-12-11,2021-12-12,2021-12-13,2021-12-14,2021-12-15,2021-12-16,2021-12-17,2021-12-18,2021-12-19,2021-12-20,2021-12-21,2021-12-22,2021-12-23,2021-12-24,2021-12-25,2021-12-26,2021-12-27,2021-12-28,2021-12-29,2021-12-30,2021-12-31,2022-01-01,2022-01-02,2022-01-03,2022-01-04,2022-01-05,2022-01-06,2022-01-07,2022-01-08,2022-01-09,2022-01-10,2022-01-11,2022-01-12,2022-01-13,2022-01-14,2022-01-15,2022-01-16,2022-01-17,2022-01-18,2022-01-19,2022-01-20,2022-01-21,2022-01-22,2022-01-23,2022-01-24,2022-01-25,2022-01-26,2022-01-27,2022-01-28,2022-01-29,2022-01-30,2022-01-31,2022-02-01,2022-02-02,2022-02-03,2022-02-04,2022-02-05,2022-02-06,2022-02-07,2022-02-08,2022-02-09,2022-02-10,2022-02-11,2022-02-12,2022-02-13,2022-02-14,2022-02-15,2022-02-16,2022-02-17,2022-02-18,2022-02-19,2022-02-20,2022-02-21,2022-02-22,2022-02-23,2022-02-24,2022-02-25,2022-02-26,2022-02-27,2022-02-28,2022-03-01,2022-03-02,2022-03-03,2022-03-04,2022-03-05,2022-03-06,2022-03-07,2022-03-08,2022-03-09,2022-03-10,2022-03-11,2022-03-12,2022-03-13,2022-03-14,2022-03-15,2022-03-16,2022-03-17,2022-03-18,2022-03-19,2022-03-20,2022-03-21,2022-03-22,2022-03-23,2022-03-24,2022-03-25,2022-03-26,2022-03-27,2022-03-28,2022-03-29,2022-03-30,2022-03-31,2022-04-01,2022-04-02,2022-04-03,2022-04-04,2022-04-05,2022-04-06,2022-04-07,2022-04-08,2022-04-09,2022-04-10,2022-04-11,2022-04-12,2022-04-13,2022-04-14,2022-04-15,2022-04-16,2022-04-17,2022-04-18,2022-04-19,2022-04-20,2022-04-21,2022-04-22,2022-04-23,2022-04-24,2022-04-25,2022-04-26,2022-04-27,2022-04-28,2022-04-29,2022-04-30,2022-05-01,2022-05-02,2022-05-03,2022-05-04,2022-05-05,2022-05-06,2022-05-07,2022-05-08,2022-05-09,2022-05-10,2022-05-11,2022-05-12,2022-05-13,2022-05-14,2022-05-15,2022-05-16,2022-05-17,2022-05-18,2022-05-19,2022-05-20,2022-05-21,2022-05-22,2022-05-23,2022-05-24,2022-05-25,2022-05-26,2022-05-27,2022-05-28,2022-05-29,2022-05-30,2022-05-31,2022-06-01,2022-06-02,2022-06-03,2022-06-04,2022-06-05,2022-06-06,2022-06-07,2022-06-08,2022-06-09,2022-06-10,2022-06-11,2022-06-12,2022-06-13,2022-06-14,2022-06-15,2022-06-16,2022-06-17,2022-06-18,2022-06-19,2022-06-20,2022-06-21,2022-06-22,2022-06-23,2022-06-24,2022-06-25,2022-06-26,2022-06-27,2022-06-28,2022-06-29,2022-06-30,2022-07-01,2022-07-02,2022-07-03,2022-07-04,2022-07-05,2022-07-06,2022-07-07,2022-07-08,2022-07-09,2022-07-10,2022-07-11,2022-07-12,2022-07-13,2022-07-14,2022-07-15,2022-07-16,2022-07-17,2022-07-18,2022-07-19,2022-07-20,2022-07-21,2022-07-22,2022-07-23,2022-07-24,2022-07-25,2022-07-26,2022-07-27,2022-07-28,2022-07-29,2022-07-30,2022-07-31,2022-08-01,2022-08-02,2022-08-03,2022-08-04,2022-08-05,2022-08-06,2022-08-07,2022-08-08,2022-08-09,2022-08-10,2022-08-11,2022-08-12,2022-08-13,2022-08-14,2022-08-15,2022-08-16,2022-08-17,2022-08-18,2022-08-19,2022-08-20,2022-08-21,2022-08-22,2022-08-23,2022-08-24,2022-08-25,2022-08-26,2022-08-27,2022-08-28,2022-08-29,2022-08-30,2022-08-31,2022-09-01,2022-09-02,2022-09-03,2022-09-04,2022-09-05,2022-09-06,2022-09-07,2022-09-08,2022-09-09,2022-09-10,2022-09-11,2022-09-12,2022-09-13,2022-09-14,2022-09-15,2022-09-16,2022-09-17,2022-09-18,2022-09-19,2022-09-20,2022-09-21,2022-09-22,2022-09-23,2022-09-24,2022-09-25,2022-09-26,2022-09-27,2022-09-28,2022-09-29,2022-09-30,2022-10-01,2022-10-02,2022-10-03,2022-10-04,2022-10-05,2022-10-06,2022-10-07,2022-10-08,2022-10-09,2022-10-10];

daysOfWeek = [Tuesday,Wednesday,Thursday,Friday,Saturday,Sunday,Monday,Tuesday,Wednesday,Thursday,Friday,Saturday,Sunday,Monday,Tuesday,Wednesday,Thursday,Friday,Saturday,Sunday,Monday,Tuesday,Wednesday,Thursday,Friday,Saturday,Sunday,Monday,Tuesday,Wednesday,Thursday,Friday,Saturday,Sunday,Monday,Tuesday,Wednesday,Thursday,Friday,Saturday,Sunday,Monday,Tuesday,Wednesday,Thursday,Friday,Saturday,Sunday,Monday,Tuesday,Wednesday,Thursday,Friday,Saturday,Sunday,Monday,Tuesday,Wednesday,Thursday,Friday,Saturday,Sunday,Monday,Tuesday,Wednesday,Thursday,Friday,Saturday,Sunday,Monday,Tuesday,Wednesday,Thursday,Friday,Saturday,Sunday,Monday,Tuesday,Wednesday,Thursday,Friday,Saturday,Sunday,Monday,Tuesday,Wednesday,Thursday,Friday,Saturday,Sunday,Monday,Tuesday,Wednesday,Thursday,Friday,Saturday,Sunday,Monday,Tuesday,Wednesday,Thursday,Friday,Saturday,Sunday,Monday,Tuesday,Wednesday,Thursday,Friday,Saturday,Sunday,Monday,Tuesday,Wednesday,Thursday,Friday,Saturday,Sunday,Monday,Tuesday,Wednesday,Thursday,Friday,Saturday,Sunday,Monday,Tuesday,Wednesday,Thursday,Friday,Saturday,Sunday,Monday,Tuesday,Wednesday,Thursday,Friday,Saturday,Sunday,Monday,Tuesday,Wednesday,Thursday,Friday,Saturday,Sunday,Monday,Tuesday,Wednesday,Thursday,Friday,Saturday,Sunday,Monday,Tuesday,Wednesday,Thursday,Friday,Saturday,Sunday,Monday,Tuesday,Wednesday,Thursday,Friday,Saturday,Sunday,Monday,Tuesday,Wednesday,Thursday,Friday,Saturday,Sunday,Monday,Tuesday,Wednesday,Thursday,Friday,Saturday,Sunday,Monday,Tuesday,Wednesday,Thursday,Friday,Saturday,Sunday,Monday,Tuesday,Wednesday,Thursday,Friday,Saturday,Sunday,Monday,Tuesday,Wednesday,Thursday,Friday,Saturday,Sunday,Monday,Tuesday,Wednesday,Thursday,Friday,Saturday,Sunday,Monday,Tuesday,Wednesday,Thursday,Friday,Saturday,Sunday,Monday,Tuesday,Wednesday,Thursday,Friday,Saturday,Sunday,Monday,Tuesday,Wednesday,Thursday,Friday,Saturday,Sunday,Monday,Tuesday,Wednesday,Thursday,Friday,Saturday,Sunday,Monday,Tuesday,Wednesday,Thursday,Friday,Saturday,Sunday,Monday,Tuesday,Wednesday,Thursday,Friday,Saturday,Sunday,Monday,Tuesday,Wednesday,Thursday,Friday,Saturday,Sunday,Monday,Tuesday,Wednesday,Thursday,Friday,Saturday,Sunday,Monday,Tuesday,Wednesday,Thursday,Friday,Saturday,Sunday,Monday,Tuesday,Wednesday,Thursday,Friday,Saturday,Sunday,Monday,Tuesday,Wednesday,Thursday,Friday,Saturday,Sunday,Monday,Tuesday,Wednesday,Thursday,Friday,Saturday,Sunday,Monday,Tuesday,Wednesday,Thursday,Friday,Saturday,Sunday,Monday,Tuesday,Wednesday,Thursday,Friday,Saturday,Sunday,Monday,Tuesday,Wednesday,Thursday,Friday,Saturday,Sunday,Monday,Tuesday,Wednesday,Thursday,Friday,Saturday,Sunday,Monday,Tuesday,Wednesday,Thursday,Friday,Saturday,Sunday,Monday,Tuesday,Wednesday,Thursday,Friday,Saturday,Sunday,Monday,Tuesday,Wednesday,Thursday,Friday,Saturday,Sunday,Monday,Tuesday,Wednesday,Thursday,Friday,Saturday,Sunday,Monday,Tuesday,Wednesday,Thursday,Friday,Saturday,Sunday,Monday,Tuesday,Wednesday,Thursday,Friday,Saturday,Sunday,Monday,Tuesday,Wednesday,Thursday,Friday,Saturday,Sunday,Monday];

% For this week, how many people will be here.
numPeople = [26,26,26,26,26,30,30,30,30,26,29,29,29,29,32,32,46,35
,35,41,42,42,44,35,35,35,35,41,38,52,52,59,44,44,54,51
,51,51,51,51,54,65,62,74,83,93,84,88,85,95,95,105,105,108
,108,108,105,105,105,115,125,125,125,125,125,124,124,124,124,119,119,127
,135,154,154,154,146,146,144,153,152,152,152,152,161,161,164,164,164,164
,164,164,164,164,164,165,165,154,154,162,162,162,162,162,162,162,162,162
,163,162,162,162,167,164,167,164,164,164,158,160,160,155,158,158,158,154
,156,156,156,156,156,156,156,163,163,163,162,147,161,157,157,157,148,162
,148,148,135,139,136,125,125,125,125,117,122,121,109,109,109,109,98,98
,98,89,89,89,89,89,89,89,89,89,89,89,89,89,89,89,89,89
,89,89,89,89,89,89,89,89,89,89,89,89,89,89,89,89,89,89
,89,89,91,91,91,91,91,40,40,40,40,40,40,40,40,40,40,40
,25,25,25,25,25,25,25,25,25,25,25,25,25,25,25,25,25,25
,25,25,25,25,25,25,25,25,25,25,25,25,25,25,25,25,25,25
,25,25,25,25,25,25,25,25,25,25,25,25,25,25,25,25,25,25
,25,25,25,25,25,25,25,25,25,25,25,25,25,25,25,25,25,25
,25,25,25,25,25,25,25,25,25,25,25,25,25,25,25,25,25,25
,25,25,25,25,25,25,25,25,25,25,25,25,25,25,25,25,25,25
,25,25,25,25,25,25,25,25,25,25,25,25,25,25,25,25,25,25
,25,25,25,25,25,25,25,25,25,25,25,25,25,25,25,25,25,25
,25,25,25,25,25,25,25,25,25,25];

% Physical workers need 50 to 100 % more nutrients per day.
numPhysicalWorkers = [14.5,14.5,14.5,14.5,14.5,14.5,14.5,14.5,14.5,14.5,16.5,16.5,16.5,16.5
,18.5,18.5,20.5,20.5,20.5,20.5,20.5,20.5,20.5,20.5,20.5,20.5,20.5,20.5
,20.5,20.5,20.5,23.5,23.5,22.5,29.0,28.0,28.0,28.0,28.0,28.0,28.0,33.0
,33.0,37.5,37.5,38.0,37.0,37.0,37.0,40.0,40.0,41.0,41.0,41.0,41.0,41.0
,41.0,41.0,41.0,45.0,46.5,46.5,46.5,46.5,46.5,46.5,45.5,45.5,45.5,45.5
,43.5,44.0,44.0,53.5,53.5,53.5,53.5,53.5,53.5,56.0,56.0,55.0,55.0,55.0
,58.5,58.5,58.5,58.5,58.5,58.5,58.5,58.5,58.5,58.5,58.5,58.5,58.5,58.5
,54.0,56.5,56.5,56.5,56.5,56.5,56.5,56.5,56.5,56.5,56.5,56.5,56.5,56.5
,57.5,57.5,57.5,57.5,57.5,57.5,57.5,54.0,54.0,54.0,53.0,53.0,53.0,53.0
,51.5,51.5,51.5,51.5,51.5,51.5,55.0,50.5,50.5,50.5,50.5,50.5,47.0,47.0
,47.0,47.0,47.0,46.0,46.0,46.0,46.0,42.0,42.0,39.0,33.5,33.5,33.5,33.5
,32.0,32.0,31.0,28.0,28.0,28.0,28.0,28.0,28.0,28.0,21.0,21.0,21.0,21.0
,21.0,21.0,21.0,21.0,21.0,21.0,21.0,21.0,21.0,21.0,21.0,21.0,21.0,21.0
,21.0,21.0,21.0,21.0,21.0,21.0,21.0,21.0,21.0,21.0,21.0,21.0,21.0,21.0
,21.0,21.0,21.0,21.0,21.5,21.5,21.5,21.5,21.5,21.5,14.5,14.5,14.5,14.5
,14.5,14.5,14.5,14.5,14.5,14.5,14.5,13.0,13.0,13.0,13.0,13.0,13.0,13.0
,13.0,13.0,13.0,13.0,13.0,13.0,13.0,13.0,13.0,13.0,13.0,13.0,13.0,13.0
,13.0,13.0,13.0,13.0,13.0,13.0,13.0,13.0,13.0,13.0,13.0,13.0,13.0,13.0
,13.0,13.0,13.0,13.0,13.0,13.0,13.0,13.0,13.0,13.0,13.0,13.0,13.0,13.0
,13.0,13.0,13.0,13.0,13.0,13.0,13.0,13.0,13.0,13.0,13.0,13.0,13.0,13.0
,13.0,13.0,13.0,13.0,13.0,13.0,13.0,13.0,13.0,13.0,13.0,13.0,13.0,13.0
,13.0,13.0,13.0,13.0,13.0,13.0,13.0,13.0,13.0,13.0,13.0,13.0,13.0,13.0
,13.0,13.0,13.0,13.0,13.0,13.0,13.0,13.0,13.0,13.0,13.0,13.0,13.0,13.0
,13.0,13.0,13.0,13.0,13.0,13.0,13.0,13.0,13.0,13.0,13.0,13.0,13.0,13.0
,13.0,13.0,13.0,13.0,13.0,13.0,13.0,13.0,13.0,13.0,13.0,13.0,13.0,13.0
,13.0,13.0,13.0,13.0,13.0,13.0,13.0,13.0,13.0,13.0,13.0,13.0,13.0,13.0
,13.0,13.0,13.0,13.0,13.0,13.0];

% Males need +25% more nutrients per day.
numMen = [23,23,23,23,23,27,27,27,27,27,25,25,25,25,27,27,41,41
,30,36,42,36,43,37,30,30,30,36,36,46,46,50,50,36,42,41
,38,38,38,38,40,47,47,52,60,71,71,65,65,72,72,81,81,84
,84,84,84,81,81,86,96,96,96,96,96,96,95,95,95,100,94,101
,108,126,126,126,126,119,119,128,128,127,127,127,136,135,137,137,137,137
,137,137,137,137,137,138,138,138,131,136,136,136,136,136,136,136,136,136
,139,139,136,136,140,140,140,140,137,137,137,132,132,132,132,132,132,132
,128,128,128,128,128,128,132,134,134,134,134,136,145,133,129,135,129,135
,135,121,121,112,112,109,100,100,100,100,100,100,99,90,90,90,90,80
,80,80,75,75,75,75,75,75,75,75,75,75,75,75,75,75,75,75
,75,75,75,75,75,75,75,75,75,75,75,75,75,75,75,75,75,75
,75,75,76,76,76,76,76,76,30,30,30,30,30,30,30,30,30,30
,30,19,19,19,19,19,19,19,19,19,19,19,19,19,19,19,19,19
,19,19,19,19,19,19,19,19,19,19,19,19,19,19,19,19,19,19
,19,19,19,19,19,19,19,19,19,19,19,19,19,19,19,19,19,19
,19,19,19,19,19,19,19,19,19,19,19,19,19,19,19,19,19,19
,19,19,19,19,19,19,19,19,19,19,19,19,19,19,19,19,19,19
,19,19,19,19,19,19,19,19,19,19,19,19,19,19,19,19,19,19
,19,19,19,19,19,19,19,19,19,19,19,19,19,19,19,19,19,19
,19,19,19,19,19,19,19,19,19,19,19,19,19,19,19,19,19,19
,19,19,19,19,19,19,19,19,19,19];

% Num people who do not eat categories. None means they eat everything.
% contains = {none, meat, milk, gluten, egg, nut, seed, sugars}
numRefusals = [| 4,1,2,4,0,6,1,0 | 4,1,2,4,0,6,1,0 | 4,1,2,4,0,6,1,0 | 4,1,2,4,0,6,1,0 | 4,1,2,4,0,6,1,0 | 3,0,2,0,2,5,1,1 | 3,0,2,0,2,5,1,1 | 3,0,2,0,2,5,1,1 | 3,0,2,0,2,5,1,1 | 1,0,1,2,5,0,1,4 | 2,1,1,2,1,1,4,3 | 2,1,1,2,1,1,4,3 | 2,1,1,2,1,1,4,3 | 2,1,1,2,1,1,4,3 | 2,3,0,3,7,2,1,2 | 2,3,0,3,7,2,1,2 | 1,1,2,6,1,1,6,3 | 3,1,5,2,1,6,4,0 | 3,1,5,2,1,6,4,0 | 5,3,8,0,1,1,1,2 | 3,2,11,8,2,2,1,0 | 3,2,11,8,2,2,1,0 | 0,1,2,1,6,1,2,2 | 0,3,0,3,6,0,5,4 | 0,3,0,3,6,0,5,4 | 0,3,0,3,6,0,5,4 | 0,3,0,3,6,0,5,4 | 6,2,2,0,1,11,1,1 | 6,0,1,7,9,5,5,2 | 7,5,6,3,0,3,1,12 | 7,5,6,3,0,3,1,12 | 9,4,0,8,1,3,6,5 | 2,1,2,3,3,8,1,2 | 2,1,2,3,3,8,1,2 | 9,1,2,1,11,2,11,9 | 8,2,4,4,5,8,6,2 | 8,2,4,4,5,8,6,2 | 8,2,4,4,5,8,6,2 | 8,2,4,4,5,8,6,2 | 8,2,4,4,5,8,6,2 | 1,10,5,0,6,6,11,7 | 1,2,2,7,3,4,4,3 | 7,3,8,8,8,5,4,0 | 3,15,4,1,3,1,3,14 | 9,4,3,3,10,3,4,8 | 2,12,5,12,9,1,9,2 | 7,12,5,7,2,7,14,14 | 9,17,6,15,4,4,20,10 | 6,11,2,2,3,1,6,9 | 1,6,5,1,8,16,15,3 | 1,6,5,1,8,16,15,3 | 2,4,13,8,16,1,4,19 | 2,4,13,8,16,1,4,19 | 12,1,4,2,11,18,2,4 | 12,1,4,2,11,18,2,4 | 12,1,4,2,11,18,2,4 | 22,0,2,3,1,11,2,6 | 22,0,2,3,1,11,2,6 | 22,0,2,3,1,11,2,6 | 6,3,10,11,14,11,4,5 | 14,5,20,9,1,6,3,5 | 14,5,20,9,1,6,3,5 | 14,5,20,9,1,6,3,5 | 14,5,20,9,1,6,3,5 | 14,5,20,9,1,6,3,5 | 17,7,19,5,23,1,7,19 | 17,7,19,5,23,1,7,19 | 17,7,19,5,23,1,7,19 | 17,7,19,5,23,1,7,19 | 19,10,1,3,3,11,7,17 | 19,10,1,3,3,11,7,17 | 2,10,5,8,5,5,8,6 | 13,2,16,10,9,0,11,17 | 5,4,11,8,11,19,26,5 | 5,4,11,8,11,19,26,5 | 5,4,11,8,11,19,26,5 | 13,22,1,10,13,5,2,28 | 13,22,1,10,13,5,2,28 | 10,17,5,3,30,13,22,2 | 10,16,8,11,20,10,19,0 | 2,8,9,14,5,21,22,6 | 2,8,9,14,5,21,22,6 | 2,8,9,14,5,21,22,6 | 2,8,9,14,5,21,22,6 | 10,30,3,16,3,36,8,10 | 10,30,3,16,3,36,8,10 | 15,10,35,2,7,6,25,8 | 15,10,35,2,7,6,25,8 | 15,10,35,2,7,6,25,8 | 15,10,35,2,7,6,25,8 | 15,10,35,2,7,6,25,8 | 15,10,35,2,7,6,25,8 | 15,10,35,2,7,6,25,8 | 15,10,35,2,7,6,25,8 | 15,10,35,2,7,6,25,8 | 21,7,43,4,7,10,27,9 | 21,7,43,4,7,10,27,9 | 3,4,7,0,11,7,16,18 | 3,4,7,0,11,7,16,18 | 6,17,2,22,5,15,10,22 | 6,17,2,22,5,15,10,22 | 6,17,2,22,5,15,10,22 | 6,17,2,22,5,15,10,22 | 6,17,2,22,5,15,10,22 | 6,17,2,22,5,15,10,22 | 6,17,2,22,5,15,10,22 | 6,17,2,22,5,15,10,22 | 6,17,2,22,5,15,10,22 | 0,9,13,4,9,32,8,4 | 11,3,1,1,9,0,0,11 | 11,3,1,1,9,0,0,11 | 11,3,1,1,9,0,0,11 | 23,4,5,17,23,34,14,33 | 15,15,32,35,5,4,8,8 | 12,10,3,3,24,5,8,10 | 18,12,24,20,4,6,4,6 | 18,12,24,20,4,6,4,6 | 18,12,24,20,4,6,4,6 | 24,1,22,2,22,8,0,14 | 7,12,14,32,1,11,14,20 | 7,12,14,32,1,11,14,20 | 24,4,2,4,2,6,2,27 | 2,2,5,19,25,13,5,19 | 2,2,5,19,25,13,5,19 | 2,2,5,19,25,13,5,19 | 14,3,20,2,24,5,0,7 | 3,21,2,29,7,17,51,22 | 3,21,2,29,7,17,51,22 | 3,21,2,29,7,17,51,22 | 3,21,2,29,7,17,51,22 | 3,21,2,29,7,17,51,22 | 3,21,2,29,7,17,51,22 | 3,21,2,29,7,17,51,22 | 6,3,8,10,10,18,29,22 | 6,3,8,10,10,18,29,22 | 6,3,8,10,10,18,29,22 | 1,37,6,4,17,10,21,28 | 6,4,22,4,10,1,11,24 | 14,23,4,14,11,5,22,14 | 32,7,8,1,8,5,2,1 | 32,7,8,1,8,5,2,1 | 32,7,8,1,8,5,2,1 | 9,1,3,0,5,41,20,5 | 27,1,31,1,16,2,1,22 | 6,31,26,8,10,2,10,21 | 6,31,26,8,10,2,10,21 | 7,9,4,26,30,16,27,7 | 1,20,2,1,42,3,4,23 | 16,9,23,1,9,5,21,12 | 1,15,12,4,1,2,1,2 | 1,15,12,4,1,2,1,2 | 1,15,12,4,1,2,1,2 | 1,15,12,4,1,2,1,2 | 6,18,11,11,7,13,15,10 | 4,5,6,7,28,2,10,4 | 3,4,15,8,3,18,20,3 | 5,20,23,7,2,18,8,23 | 5,20,23,7,2,18,8,23 | 5,20,23,7,2,18,8,23 | 5,20,23,7,2,18,8,23 | 1,1,5,7,11,16,14,4 | 1,1,5,7,11,16,14,4 | 1,1,5,7,11,16,14,4 | 11,5,6,7,7,3,2,1 | 11,5,6,7,7,3,2,1 | 11,5,6,7,7,3,2,1 | 11,5,6,7,7,3,2,1 | 11,5,6,7,7,3,2,1 | 11,5,6,7,7,3,2,1 | 11,5,6,7,7,3,2,1 | 11,5,6,7,7,3,2,1 | 11,5,6,7,7,3,2,1 | 11,5,6,7,7,3,2,1 | 11,5,6,7,7,3,2,1 | 11,5,6,7,7,3,2,1 | 11,5,6,7,7,3,2,1 | 11,5,6,7,7,3,2,1 | 11,5,6,7,7,3,2,1 | 11,5,6,7,7,3,2,1 | 11,5,6,7,7,3,2,1 | 11,5,6,7,7,3,2,1 | 11,5,6,7,7,3,2,1 | 11,5,6,7,7,3,2,1 | 11,5,6,7,7,3,2,1 | 11,5,6,7,7,3,2,1 | 11,5,6,7,7,3,2,1 | 11,5,6,7,7,3,2,1 | 11,5,6,7,7,3,2,1 | 11,5,6,7,7,3,2,1 | 11,5,6,7,7,3,2,1 | 11,5,6,7,7,3,2,1 | 11,5,6,7,7,3,2,1 | 11,5,6,7,7,3,2,1 | 11,5,6,7,7,3,2,1 | 11,5,6,7,7,3,2,1 | 11,5,6,7,7,3,2,1 | 11,5,6,7,7,3,2,1 | 11,5,6,7,7,3,2,1 | 11,5,6,7,7,3,2,1 | 11,5,6,7,7,3,2,1 | 1,7,8,6,0,13,2,7 | 1,7,8,6,0,13,2,7 | 1,7,8,6,0,13,2,7 | 1,7,8,6,0,13,2,7 | 1,7,8,6,0,13,2,7 | 5,14,2,5,4,2,6,0 | 5,14,2,5,4,2,6,0 | 5,14,2,5,4,2,6,0 | 5,14,2,5,4,2,6,0 | 5,14,2,5,4,2,6,0 | 5,14,2,5,4,2,6,0 | 5,14,2,5,4,2,6,0 | 5,14,2,5,4,2,6,0 | 5,14,2,5,4,2,6,0 | 5,14,2,5,4,2,6,0 | 5,14,2,5,4,2,6,0 | 1,4,3,1,1,1,6,4 | 1,4,3,1,1,1,6,4 | 1,4,3,1,1,1,6,4 | 1,4,3,1,1,1,6,4 | 1,4,3,1,1,1,6,4 | 1,4,3,1,1,1,6,4 | 1,4,3,1,1,1,6,4 | 1,4,3,1,1,1,6,4 | 1,4,3,1,1,1,6,4 | 1,4,3,1,1,1,6,4 | 1,4,3,1,1,1,6,4 | 1,4,3,1,1,1,6,4 | 1,4,3,1,1,1,6,4 | 1,4,3,1,1,1,6,4 | 1,4,3,1,1,1,6,4 | 1,4,3,1,1,1,6,4 | 1,4,3,1,1,1,6,4 | 1,4,3,1,1,1,6,4 | 1,4,3,1,1,1,6,4 | 1,4,3,1,1,1,6,4 | 1,4,3,1,1,1,6,4 | 1,4,3,1,1,1,6,4 | 1,4,3,1,1,1,6,4 | 1,4,3,1,1,1,6,4 | 1,4,3,1,1,1,6,4 | 1,4,3,1,1,1,6,4 | 1,4,3,1,1,1,6,4 | 1,4,3,1,1,1,6,4 | 1,4,3,1,1,1,6,4 | 1,4,3,1,1,1,6,4 | 1,4,3,1,1,1,6,4 | 1,4,3,1,1,1,6,4 | 1,4,3,1,1,1,6,4 | 1,4,3,1,1,1,6,4 | 1,4,3,1,1,1,6,4 | 1,4,3,1,1,1,6,4 | 1,4,3,1,1,1,6,4 | 1,4,3,1,1,1,6,4 | 1,4,3,1,1,1,6,4 | 1,4,3,1,1,1,6,4 | 1,4,3,1,1,1,6,4 | 1,4,3,1,1,1,6,4 | 1,4,3,1,1,1,6,4 | 1,4,3,1,1,1,6,4 | 1,4,3,1,1,1,6,4 | 1,4,3,1,1,1,6,4 | 1,4,3,1,1,1,6,4 | 1,4,3,1,1,1,6,4 | 1,4,3,1,1,1,6,4 | 1,4,3,1,1,1,6,4 | 1,4,3,1,1,1,6,4 | 1,4,3,1,1,1,6,4 | 1,4,3,1,1,1,6,4 | 1,4,3,1,1,1,6,4 | 1,4,3,1,1,1,6,4 | 1,4,3,1,1,1,6,4 | 1,4,3,1,1,1,6,4 | 1,4,3,1,1,1,6,4 | 1,4,3,1,1,1,6,4 | 1,4,3,1,1,1,6,4 | 1,4,3,1,1,1,6,4 | 1,4,3,1,1,1,6,4 | 1,4,3,1,1,1,6,4 | 1,4,3,1,1,1,6,4 | 1,4,3,1,1,1,6,4 | 1,4,3,1,1,1,6,4 | 1,4,3,1,1,1,6,4 | 1,4,3,1,1,1,6,4 | 1,4,3,1,1,1,6,4 | 1,4,3,1,1,1,6,4 | 1,4,3,1,1,1,6,4 | 1,4,3,1,1,1,6,4 | 1,4,3,1,1,1,6,4 | 1,4,3,1,1,1,6,4 | 1,4,3,1,1,1,6,4 | 1,4,3,1,1,1,6,4 | 1,4,3,1,1,1,6,4 | 1,4,3,1,1,1,6,4 | 1,4,3,1,1,1,6,4 | 1,4,3,1,1,1,6,4 | 1,4,3,1,1,1,6,4 | 1,4,3,1,1,1,6,4 | 1,4,3,1,1,1,6,4 | 1,4,3,1,1,1,6,4 | 1,4,3,1,1,1,6,4 | 1,4,3,1,1,1,6,4 | 1,4,3,1,1,1,6,4 | 1,4,3,1,1,1,6,4 | 1,4,3,1,1,1,6,4 | 1,4,3,1,1,1,6,4 | 1,4,3,1,1,1,6,4 | 1,4,3,1,1,1,6,4 | 1,4,3,1,1,1,6,4 | 1,4,3,1,1,1,6,4 | 1,4,3,1,1,1,6,4 | 1,4,3,1,1,1,6,4 | 1,4,3,1,1,1,6,4 | 1,4,3,1,1,1,6,4 | 1,4,3,1,1,1,6,4 | 1,4,3,1,1,1,6,4 | 1,4,3,1,1,1,6,4 | 1,4,3,1,1,1,6,4 | 1,4,3,1,1,1,6,4 | 1,4,3,1,1,1,6,4 | 1,4,3,1,1,1,6,4 | 1,4,3,1,1,1,6,4 | 1,4,3,1,1,1,6,4 | 1,4,3,1,1,1,6,4 | 1,4,3,1,1,1,6,4 | 1,4,3,1,1,1,6,4 | 1,4,3,1,1,1,6,4 | 1,4,3,1,1,1,6,4 | 1,4,3,1,1,1,6,4 | 1,4,3,1,1,1,6,4 | 1,4,3,1,1,1,6,4 | 1,4,3,1,1,1,6,4 | 1,4,3,1,1,1,6,4 | 1,4,3,1,1,1,6,4 | 1,4,3,1,1,1,6,4 | 1,4,3,1,1,1,6,4 | 1,4,3,1,1,1,6,4 | 1,4,3,1,1,1,6,4 | 1,4,3,1,1,1,6,4 | 1,4,3,1,1,1,6,4 | 1,4,3,1,1,1,6,4 | 1,4,3,1,1,1,6,4 | 1,4,3,1,1,1,6,4 | 1,4,3,1,1,1,6,4 | 1,4,3,1,1,1,6,4 | 1,4,3,1,1,1,6,4 | 1,4,3,1,1,1,6,4 | 1,4,3,1,1,1,6,4 | 1,4,3,1,1,1,6,4 | 1,4,3,1,1,1,6,4 | 1,4,3,1,1,1,6,4 | 1,4,3,1,1,1,6,4 | 1,4,3,1,1,1,6,4 | 1,4,3,1,1,1,6,4 | 1,4,3,1,1,1,6,4 | 1,4,3,1,1,1,6,4 | 1,4,3,1,1,1,6,4 | 1,4,3,1,1,1,6,4 | 1,4,3,1,1,1,6,4 | 1,4,3,1,1,1,6,4 | 1,4,3,1,1,1,6,4 | 1,4,3,1,1,1,6,4 | 1,4,3,1,1,1,6,4 | 1,4,3,1,1,1,6,4 | 1,4,3,1,1,1,6,4 | 1,4,3,1,1,1,6,4 | 1,4,3,1,1,1,6,4 | 1,4,3,1,1,1,6,4 | 1,4,3,1,1,1,6,4 | 1,4,3,1,1,1,6,4 |];

